c Reduced graph for p14 generated by Cyril Grelier
p edge 31 110
e 1 2
e 1 3
e 1 4
e 1 5
e 1 6
e 1 7
e 1 11
e 1 13
e 1 14
e 2 3
e 2 4
e 2 7
e 2 8
e 2 9
e 2 11
e 2 16
e 2 25
e 3 4
e 3 7
e 3 10
e 3 11
e 3 17
e 3 18
e 3 26
e 4 7
e 4 11
e 4 12
e 4 22
e 4 31
e 5 6
e 5 8
e 5 13
e 5 14
e 5 15
e 5 19
e 5 20
e 6 9
e 6 10
e 6 12
e 6 13
e 6 14
e 6 21
e 7 11
e 7 15
e 7 23
e 7 24
e 8 9
e 8 15
e 8 16
e 8 19
e 8 20
e 8 25
e 9 10
e 9 12
e 9 16
e 9 21
e 9 25
e 10 12
e 10 17
e 10 18
e 10 21
e 10 26
e 11 20
e 11 21
e 11 30
e 12 21
e 12 22
e 12 31
e 13 14
e 13 16
e 13 17
e 13 27
e 14 18
e 14 24
e 14 29
e 15 19
e 15 20
e 15 23
e 15 24
e 16 17
e 16 25
e 16 27
e 17 18
e 17 26
e 17 27
e 18 24
e 18 26
e 18 29
e 19 20
e 19 27
e 19 28
e 19 29
e 20 21
e 20 30
e 21 30
e 22 23
e 22 28
e 22 30
e 22 31
e 23 24
e 23 28
e 23 30
e 24 29
e 25 26
e 25 31
e 26 31
e 27 28
e 27 29
e 28 29
e 28 30
